33D32945 STP File, STP Format Version 1.0

SECTION Comment
Name    "cancer6_6D"
Creator "S. A. Chowdhury, A. A. Schaffer, R. Schwartz"
Problem "Rectilinear Steiner Minimum Tree"
Remark  "Derived from a problem in (prostate) cancer research"
END

SECTION Graph 
Nodes 50
END

SECTION Coordinates
DDDDDD 1 2 2 2 2 2 2 
DDDDDD 2 0 2 1 2 1 2 
DDDDDD 3 1 2 1 2 0 2 
DDDDDD 4 1 2 1 2 1 2 
DDDDDD 5 1 2 2 2 2 2 
DDDDDD 6 2 1 2 1 2 1 
DDDDDD 7 2 2 1 2 0 2 
DDDDDD 8 2 2 1 2 1 1 
DDDDDD 9 2 2 1 2 1 2 
DDDDDD 10 2 2 1 2 2 2 
DDDDDD 11 2 2 2 2 1 2 
DDDDDD 12 2 2 2 2 2 1 
DDDDDD 13 2 3 2 2 2 1 
DDDDDD 14 1 2 2 1 1 2 
DDDDDD 15 2 2 1 1 2 1 
DDDDDD 16 2 2 2 1 2 1 
DDDDDD 17 2 2 2 1 2 2 
DDDDDD 18 0 2 1 3 2 2 
DDDDDD 19 0 2 2 2 1 2 
DDDDDD 20 0 2 2 2 2 1 
DDDDDD 21 0 2 2 2 2 2 
DDDDDD 22 0 2 2 2 2 3 
DDDDDD 23 1 1 1 1 2 1 
DDDDDD 24 1 1 2 2 2 2 
DDDDDD 25 1 2 1 2 2 2 
DDDDDD 26 1 2 2 2 1 2 
DDDDDD 27 1 2 2 2 3 2 
DDDDDD 28 2 1 1 2 1 1 
DDDDDD 29 2 1 1 2 2 1 
DDDDDD 30 2 1 2 1 2 2 
DDDDDD 31 2 1 2 2 2 2 
DDDDDD 32 2 2 1 2 2 3 
DDDDDD 33 2 2 1 2 3 2 
DDDDDD 34 2 2 2 2 0 2 
DDDDDD 35 2 2 2 2 2 3 
DDDDDD 36 2 2 2 2 3 1 
DDDDDD 37 2 2 2 2 3 2 
DDDDDD 38 2 2 2 2 4 2 
DDDDDD 39 2 2 2 3 2 2 
DDDDDD 40 2 2 2 3 3 2 
DDDDDD 41 2 2 3 2 2 2 
DDDDDD 42 2 2 3 2 2 3 
DDDDDD 43 2 3 2 2 1 2 
DDDDDD 44 2 3 2 2 2 2 
DDDDDD 45 3 2 2 2 1 2 
DDDDDD 46 3 2 2 2 2 2 
DDDDDD 47 3 2 2 2 4 2 
DDDDDD 48 2 2 2 2 0 3 
DDDDDD 49 2 4 2 4 2 4 
DDDDDD 50 2 2 4 2 2 2 
END

EOF
